c "149503.clq"
p edge 247 3696
e 1 17
e 1 18
e 1 19
e 1 21
e 1 22
e 1 23
e 1 27
e 1 35
e 1 38
e 1 58
e 1 60
e 1 63
e 1 76
e 1 80
e 1 87
e 1 91
e 1 99
e 1 102
e 1 107
e 1 110
e 1 111
e 1 123
e 1 124
e 1 125
e 1 129
e 1 140
e 1 141
e 1 157
e 1 170
e 1 186
e 1 188
e 1 189
e 1 193
e 1 208
e 2 17
e 2 18
e 2 19
e 2 20
e 2 21
e 2 22
e 2 23
e 2 24
e 2 30
e 2 31
e 2 34
e 2 38
e 2 39
e 2 40
e 2 43
e 2 45
e 2 46
e 2 48
e 2 52
e 2 64
e 2 74
e 2 78
e 2 84
e 2 86
e 2 87
e 2 98
e 2 100
e 2 104
e 2 105
e 2 119
e 2 122
e 2 123
e 2 124
e 2 128
e 2 129
e 2 132
e 2 143
e 2 148
e 2 154
e 2 155
e 2 156
e 2 158
e 2 165
e 2 172
e 2 178
e 2 195
e 2 203
e 2 209
e 2 224
e 3 17
e 3 18
e 3 20
e 3 21
e 3 22
e 3 23
e 3 25
e 3 26
e 3 43
e 3 46
e 3 55
e 3 57
e 3 59
e 3 71
e 3 77
e 3 79
e 3 84
e 3 91
e 3 98
e 3 116
e 3 140
e 3 149
e 3 173
e 3 186
e 3 192
e 3 198
e 3 215
e 3 222
e 3 225
e 3 241
e 4 17
e 4 18
e 4 19
e 4 20
e 4 21
e 4 22
e 4 23
e 4 24
e 4 25
e 4 26
e 4 27
e 4 28
e 4 29
e 4 32
e 4 33
e 4 35
e 4 38
e 4 41
e 4 47
e 4 48
e 4 53
e 4 58
e 4 67
e 4 72
e 4 73
e 4 78
e 4 81
e 4 90
e 4 94
e 4 103
e 4 108
e 4 109
e 4 110
e 4 116
e 4 119
e 4 121
e 4 123
e 4 130
e 4 131
e 4 133
e 4 144
e 4 147
e 4 149
e 4 154
e 4 155
e 4 160
e 4 168
e 4 181
e 4 182
e 4 189
e 4 191
e 4 192
e 4 197
e 4 224
e 4 227
e 4 233
e 4 236
e 5 17
e 5 18
e 5 19
e 5 20
e 5 24
e 5 25
e 5 26
e 5 29
e 5 35
e 5 36
e 5 37
e 5 43
e 5 45
e 5 61
e 5 64
e 5 68
e 5 74
e 5 84
e 5 89
e 5 93
e 5 96
e 5 105
e 5 106
e 5 115
e 5 117
e 5 119
e 5 151
e 5 159
e 5 160
e 5 169
e 5 173
e 5 174
e 5 181
e 5 212
e 5 216
e 5 225
e 5 240
e 5 242
e 6 17
e 6 18
e 6 19
e 6 22
e 6 28
e 6 34
e 6 44
e 6 45
e 6 65
e 6 70
e 6 94
e 6 97
e 6 100
e 6 106
e 6 118
e 6 157
e 6 201
e 6 205
e 6 217
e 6 220
e 6 221
e 6 234
e 7 17
e 7 19
e 7 20
e 7 21
e 7 22
e 7 23
e 7 25
e 7 27
e 7 29
e 7 30
e 7 31
e 7 32
e 7 38
e 7 40
e 7 46
e 7 47
e 7 49
e 7 51
e 7 54
e 7 56
e 7 57
e 7 58
e 7 61
e 7 63
e 7 69
e 7 79
e 7 89
e 7 109
e 7 118
e 7 124
e 7 126
e 7 129
e 7 141
e 7 157
e 7 160
e 7 162
e 7 163
e 7 175
e 7 176
e 7 179
e 7 182
e 7 183
e 7 187
e 7 189
e 7 197
e 7 212
e 7 228
e 7 245
e 8 17
e 8 18
e 8 20
e 8 24
e 8 25
e 8 30
e 8 33
e 8 34
e 8 35
e 8 37
e 8 55
e 8 61
e 8 63
e 8 77
e 8 86
e 8 95
e 8 98
e 8 113
e 8 116
e 8 120
e 8 125
e 8 144
e 8 171
e 8 174
e 8 175
e 8 196
e 8 206
e 8 208
e 8 209
e 8 214
e 8 228
e 8 237
e 8 244
e 8 247
e 9 17
e 9 18
e 9 19
e 9 20
e 9 23
e 9 25
e 9 26
e 9 28
e 9 30
e 9 32
e 9 33
e 9 36
e 9 43
e 9 49
e 9 53
e 9 55
e 9 58
e 9 59
e 9 60
e 9 69
e 9 72
e 9 83
e 9 86
e 9 92
e 9 93
e 9 104
e 9 105
e 9 106
e 9 108
e 9 128
e 9 145
e 9 153
e 9 170
e 9 184
e 9 187
e 9 194
e 9 196
e 9 239
e 9 241
e 10 17
e 10 18
e 10 19
e 10 20
e 10 21
e 10 22
e 10 23
e 10 24
e 10 25
e 10 26
e 10 27
e 10 37
e 10 38
e 10 41
e 10 44
e 10 47
e 10 56
e 10 69
e 10 73
e 10 75
e 10 85
e 10 90
e 10 95
e 10 96
e 10 106
e 10 108
e 10 109
e 10 110
e 10 113
e 10 115
e 10 116
e 10 120
e 10 130
e 10 131
e 10 132
e 10 134
e 10 144
e 10 147
e 10 156
e 10 159
e 10 162
e 10 173
e 10 178
e 10 179
e 10 193
e 10 204
e 10 207
e 10 229
e 11 17
e 11 18
e 11 19
e 11 20
e 11 21
e 11 22
e 11 23
e 11 26
e 11 29
e 11 31
e 11 36
e 11 37
e 11 39
e 11 42
e 11 46
e 11 49
e 11 51
e 11 61
e 11 64
e 11 65
e 11 67
e 11 73
e 11 83
e 11 90
e 11 93
e 11 107
e 11 108
e 11 110
e 11 115
e 11 119
e 11 122
e 11 147
e 11 169
e 11 174
e 11 176
e 11 190
e 11 193
e 11 194
e 11 202
e 11 210
e 11 211
e 11 212
e 11 219
e 11 236
e 11 243
e 12 17
e 12 18
e 12 19
e 12 20
e 12 21
e 12 22
e 12 23
e 12 28
e 12 29
e 12 32
e 12 33
e 12 36
e 12 37
e 12 38
e 12 40
e 12 41
e 12 42
e 12 43
e 12 45
e 12 50
e 12 55
e 12 56
e 12 58
e 12 61
e 12 68
e 12 80
e 12 89
e 12 93
e 12 95
e 12 98
e 12 105
e 12 112
e 12 121
e 12 123
e 12 134
e 12 138
e 12 147
e 12 149
e 12 152
e 12 173
e 12 204
e 12 223
e 12 242
e 12 244
e 13 17
e 13 18
e 13 19
e 13 20
e 13 21
e 13 22
e 13 23
e 13 24
e 13 25
e 13 27
e 13 28
e 13 29
e 13 30
e 13 31
e 13 32
e 13 33
e 13 36
e 13 37
e 13 40
e 13 42
e 13 44
e 13 46
e 13 51
e 13 54
e 13 57
e 13 62
e 13 65
e 13 68
e 13 69
e 13 70
e 13 73
e 13 77
e 13 80
e 13 82
e 13 84
e 13 85
e 13 91
e 13 104
e 13 105
e 13 108
e 13 109
e 13 110
e 13 114
e 13 119
e 13 134
e 13 141
e 13 143
e 13 145
e 13 148
e 13 158
e 13 165
e 13 171
e 13 174
e 13 177
e 13 179
e 13 180
e 13 181
e 13 200
e 13 204
e 13 211
e 13 222
e 13 226
e 13 240
e 14 17
e 14 18
e 14 19
e 14 20
e 14 21
e 14 24
e 14 25
e 14 27
e 14 30
e 14 32
e 14 37
e 14 38
e 14 42
e 14 50
e 14 57
e 14 61
e 14 68
e 14 74
e 14 78
e 14 82
e 14 83
e 14 85
e 14 93
e 14 99
e 14 112
e 14 118
e 14 128
e 14 140
e 14 144
e 14 148
e 14 150
e 14 168
e 14 187
e 14 198
e 14 199
e 14 209
e 14 211
e 14 215
e 14 218
e 14 230
e 15 17
e 15 18
e 15 19
e 15 21
e 15 24
e 15 25
e 15 26
e 15 27
e 15 28
e 15 29
e 15 31
e 15 36
e 15 42
e 15 44
e 15 47
e 15 65
e 15 69
e 15 70
e 15 118
e 15 149
e 15 159
e 15 163
e 15 194
e 16 17
e 16 18
e 16 19
e 16 20
e 16 21
e 16 22
e 16 24
e 16 28
e 16 30
e 16 31
e 16 34
e 16 55
e 16 56
e 16 62
e 16 68
e 16 76
e 16 77
e 16 88
e 16 108
e 16 114
e 16 118
e 16 119
e 16 123
e 16 135
e 16 137
e 16 142
e 16 146
e 16 152
e 16 159
e 16 166
e 16 184
e 16 205
e 16 209
e 16 227
e 16 235
e 17 18
e 17 19
e 17 20
e 17 21
e 17 22
e 17 23
e 17 24
e 17 25
e 17 26
e 17 27
e 17 28
e 17 30
e 17 32
e 17 33
e 17 34
e 17 35
e 17 36
e 17 37
e 17 39
e 17 42
e 17 44
e 17 45
e 17 49
e 17 51
e 17 52
e 17 54
e 17 59
e 17 60
e 17 62
e 17 63
e 17 64
e 17 66
e 17 71
e 17 72
e 17 73
e 17 74
e 17 76
e 17 78
e 17 79
e 17 82
e 17 83
e 17 89
e 17 91
e 17 96
e 17 101
e 17 103
e 17 104
e 17 109
e 17 113
e 17 117
e 17 127
e 17 130
e 17 133
e 17 136
e 17 138
e 17 145
e 17 147
e 17 148
e 17 151
e 17 154
e 17 160
e 17 164
e 17 166
e 17 167
e 17 169
e 17 171
e 17 172
e 17 173
e 17 189
e 17 194
e 17 196
e 17 200
e 17 210
e 17 213
e 17 214
e 17 216
e 17 221
e 17 223
e 17 224
e 17 231
e 17 232
e 17 235
e 17 237
e 17 242
e 18 19
e 18 20
e 18 21
e 18 22
e 18 23
e 18 24
e 18 25
e 18 26
e 18 27
e 18 28
e 18 29
e 18 30
e 18 32
e 18 33
e 18 35
e 18 36
e 18 37
e 18 39
e 18 41
e 18 42
e 18 43
e 18 44
e 18 46
e 18 47
e 18 48
e 18 50
e 18 51
e 18 52
e 18 55
e 18 56
e 18 61
e 18 63
e 18 67
e 18 70
e 18 75
e 18 79
e 18 82
e 18 83
e 18 85
e 18 86
e 18 89
e 18 91
e 18 92
e 18 97
e 18 110
e 18 114
e 18 119
e 18 121
e 18 123
e 18 125
e 18 129
e 18 134
e 18 136
e 18 146
e 18 148
e 18 150
e 18 164
e 18 165
e 18 167
e 18 168
e 18 169
e 18 180
e 18 184
e 18 195
e 18 196
e 18 201
e 18 206
e 18 207
e 18 209
e 18 210
e 18 211
e 18 229
e 18 230
e 18 245
e 19 20
e 19 21
e 19 22
e 19 23
e 19 24
e 19 25
e 19 26
e 19 27
e 19 28
e 19 29
e 19 30
e 19 31
e 19 32
e 19 34
e 19 35
e 19 36
e 19 39
e 19 40
e 19 42
e 19 43
e 19 44
e 19 45
e 19 46
e 19 48
e 19 51
e 19 52
e 19 54
e 19 56
e 19 57
e 19 58
e 19 60
e 19 66
e 19 67
e 19 69
e 19 74
e 19 79
e 19 80
e 19 83
e 19 86
e 19 87
e 19 94
e 19 95
e 19 96
e 19 97
e 19 100
e 19 101
e 19 103
e 19 106
e 19 117
e 19 123
e 19 124
e 19 125
e 19 126
e 19 132
e 19 134
e 19 136
e 19 137
e 19 147
e 19 150
e 19 151
e 19 152
e 19 162
e 19 164
e 19 165
e 19 168
e 19 172
e 19 176
e 19 178
e 19 180
e 19 181
e 19 182
e 19 185
e 19 186
e 19 188
e 19 190
e 19 195
e 19 199
e 19 204
e 19 211
e 19 238
e 19 239
e 19 242
e 19 245
e 20 21
e 20 22
e 20 23
e 20 24
e 20 25
e 20 26
e 20 27
e 20 28
e 20 29
e 20 30
e 20 31
e 20 32
e 20 33
e 20 35
e 20 36
e 20 37
e 20 39
e 20 40
e 20 41
e 20 44
e 20 46
e 20 48
e 20 49
e 20 50
e 20 52
e 20 54
e 20 59
e 20 62
e 20 64
e 20 68
e 20 74
e 20 77
e 20 81
e 20 82
e 20 83
e 20 87
e 20 88
e 20 92
e 20 96
e 20 99
e 20 101
e 20 114
e 20 115
e 20 117
e 20 123
e 20 126
e 20 128
e 20 130
e 20 131
e 20 132
e 20 133
e 20 139
e 20 142
e 20 149
e 20 158
e 20 159
e 20 164
e 20 165
e 20 174
e 20 180
e 20 192
e 20 193
e 20 194
e 20 195
e 20 197
e 20 204
e 20 214
e 20 227
e 20 228
e 20 231
e 20 232
e 20 237
e 20 247
e 21 22
e 21 23
e 21 24
e 21 25
e 21 26
e 21 27
e 21 28
e 21 29
e 21 30
e 21 31
e 21 32
e 21 34
e 21 35
e 21 36
e 21 38
e 21 39
e 21 40
e 21 41
e 21 46
e 21 47
e 21 48
e 21 51
e 21 52
e 21 56
e 21 58
e 21 61
e 21 62
e 21 63
e 21 64
e 21 65
e 21 68
e 21 69
e 21 72
e 21 73
e 21 74
e 21 79
e 21 81
e 21 83
e 21 85
e 21 88
e 21 92
e 21 95
e 21 97
e 21 98
e 21 107
e 21 111
e 21 130
e 21 141
e 21 144
e 21 146
e 21 152
e 21 156
e 21 160
e 21 162
e 21 166
e 21 172
e 21 175
e 21 176
e 21 177
e 21 185
e 21 194
e 21 200
e 21 216
e 21 220
e 21 221
e 21 236
e 21 243
e 22 23
e 22 24
e 22 25
e 22 26
e 22 27
e 22 29
e 22 30
e 22 31
e 22 33
e 22 34
e 22 35
e 22 38
e 22 39
e 22 41
e 22 42
e 22 47
e 22 49
e 22 50
e 22 53
e 22 54
e 22 56
e 22 57
e 22 60
e 22 61
e 22 62
e 22 66
e 22 71
e 22 74
e 22 76
e 22 77
e 22 78
e 22 79
e 22 87
e 22 88
e 22 95
e 22 97
e 22 99
e 22 101
e 22 102
e 22 107
e 22 116
e 22 120
e 22 122
e 22 125
e 22 126
e 22 130
e 22 137
e 22 143
e 22 144
e 22 149
e 22 153
e 22 160
e 22 171
e 22 172
e 22 173
e 22 182
e 22 184
e 22 186
e 22 188
e 22 209
e 22 212
e 22 213
e 22 219
e 22 226
e 22 227
e 22 231
e 22 236
e 22 240
e 22 241
e 23 24
e 23 26
e 23 27
e 23 28
e 23 29
e 23 30
e 23 31
e 23 33
e 23 34
e 23 36
e 23 37
e 23 40
e 23 41
e 23 43
e 23 45
e 23 47
e 23 50
e 23 54
e 23 58
e 23 60
e 23 63
e 23 66
e 23 67
e 23 68
e 23 71
e 23 72
e 23 73
e 23 77
e 23 85
e 23 87
e 23 95
e 23 96
e 23 102
e 23 103
e 23 105
e 23 106
e 23 112
e 23 118
e 23 126
e 23 130
e 23 134
e 23 137
e 23 142
e 23 146
e 23 170
e 23 174
e 23 180
e 23 187
e 23 192
e 23 195
e 23 196
e 23 208
e 23 220
e 23 223
e 23 227
e 23 230
e 23 232
e 23 233
e 23 235
e 23 240
e 23 244
e 23 245
e 23 247
e 24 26
e 24 27
e 24 28
e 24 29
e 24 31
e 24 32
e 24 33
e 24 35
e 24 36
e 24 38
e 24 39
e 24 40
e 24 41
e 24 42
e 24 44
e 24 49
e 24 51
e 24 52
e 24 53
e 24 61
e 24 65
e 24 66
e 24 69
e 24 76
e 24 80
e 24 81
e 24 84
e 24 85
e 24 89
e 24 90
e 24 94
e 24 98
e 24 99
e 24 111
e 24 113
e 24 116
e 24 121
e 24 127
e 24 130
e 24 131
e 24 137
e 24 139
e 24 142
e 24 145
e 24 148
e 24 149
e 24 151
e 24 156
e 24 157
e 24 158
e 24 161
e 24 162
e 24 163
e 24 164
e 24 178
e 24 181
e 24 191
e 24 192
e 24 194
e 24 201
e 24 202
e 24 203
e 24 217
e 24 218
e 24 221
e 24 236
e 24 239
e 24 243
e 25 26
e 25 27
e 25 28
e 25 29
e 25 32
e 25 33
e 25 34
e 25 35
e 25 38
e 25 41
e 25 45
e 25 47
e 25 49
e 25 50
e 25 51
e 25 52
e 25 55
e 25 60
e 25 61
e 25 62
e 25 63
e 25 65
e 25 66
e 25 71
e 25 72
e 25 73
e 25 74
e 25 75
e 25 81
e 25 90
e 25 93
e 25 94
e 25 98
e 25 103
e 25 106
e 25 109
e 25 111
e 25 115
e 25 122
e 25 127
e 25 128
e 25 139
e 25 140
e 25 142
e 25 147
e 25 151
e 25 153
e 25 155
e 25 157
e 25 161
e 25 162
e 25 167
e 25 168
e 25 176
e 25 177
e 25 182
e 25 183
e 25 184
e 25 185
e 25 187
e 25 189
e 25 190
e 25 198
e 25 199
e 25 207
e 25 210
e 25 213
e 25 215
e 25 220
e 25 221
e 25 224
e 25 234
e 25 236
e 25 237
e 26 29
e 26 30
e 26 31
e 26 33
e 26 34
e 26 38
e 26 39
e 26 40
e 26 41
e 26 42
e 26 50
e 26 54
e 26 57
e 26 61
e 26 63
e 26 80
e 26 81
e 26 82
e 26 84
e 26 89
e 26 90
e 26 93
e 26 94
e 26 97
e 26 101
e 26 102
e 26 109
e 26 110
e 26 111
e 26 120
e 26 127
e 26 135
e 26 138
e 26 150
e 26 159
e 26 178
e 26 186
e 26 190
e 26 197
e 26 204
e 26 212
e 26 218
e 26 220
e 26 234
e 26 237
e 26 242
e 26 246
e 27 28
e 27 35
e 27 37
e 27 43
e 27 44
e 27 46
e 27 47
e 27 48
e 27 52
e 27 55
e 27 56
e 27 57
e 27 58
e 27 59
e 27 62
e 27 68
e 27 80
e 27 82
e 27 88
e 27 91
e 27 107
e 27 112
e 27 115
e 27 117
e 27 119
e 27 124
e 27 136
e 27 150
e 27 166
e 27 168
e 27 176
e 27 181
e 27 184
e 27 189
e 27 193
e 27 202
e 27 230
e 28 30
e 28 31
e 28 34
e 28 35
e 28 39
e 28 40
e 28 41
e 28 43
e 28 44
e 28 45
e 28 46
e 28 52
e 28 56
e 28 58
e 28 63
e 28 74
e 28 76
e 28 84
e 28 85
e 28 92
e 28 99
e 28 114
e 28 127
e 28 129
e 28 130
e 28 131
e 28 136
e 28 151
e 28 152
e 28 154
e 28 158
e 28 159
e 28 161
e 28 169
e 28 190
e 28 192
e 28 216
e 28 220
e 28 223
e 28 246
e 29 31
e 29 32
e 29 33
e 29 34
e 29 35
e 29 36
e 29 38
e 29 40
e 29 43
e 29 49
e 29 50
e 29 56
e 29 64
e 29 65
e 29 69
e 29 70
e 29 76
e 29 82
e 29 83
e 29 86
e 29 92
e 29 95
e 29 101
e 29 102
e 29 103
e 29 108
e 29 111
e 29 114
e 29 117
e 29 121
e 29 123
e 29 127
e 29 132
e 29 134
e 29 135
e 29 138
e 29 141
e 29 144
e 29 145
e 29 147
e 29 154
e 29 163
e 29 175
e 29 191
e 29 197
e 29 201
e 29 202
e 29 210
e 29 212
e 29 221
e 29 229
e 29 233
e 29 241
e 30 31
e 30 32
e 30 33
e 30 34
e 30 35
e 30 37
e 30 39
e 30 40
e 30 42
e 30 43
e 30 45
e 30 46
e 30 48
e 30 50
e 30 51
e 30 53
e 30 54
e 30 55
e 30 57
e 30 59
e 30 62
e 30 63
e 30 66
e 30 67
e 30 70
e 30 71
e 30 77
e 30 79
e 30 82
e 30 84
e 30 92
e 30 93
e 30 97
e 30 100
e 30 104
e 30 108
e 30 112
e 30 113
e 30 118
e 30 120
e 30 126
e 30 135
e 30 139
e 30 146
e 30 147
e 30 149
e 30 150
e 30 152
e 30 153
e 30 161
e 30 167
e 30 169
e 30 170
e 30 171
e 30 177
e 30 179
e 30 180
e 30 181
e 30 183
e 30 188
e 30 190
e 30 192
e 30 193
e 30 195
e 30 206
e 30 208
e 30 209
e 30 214
e 30 217
e 30 228
e 30 239
e 30 243
e 31 32
e 31 33
e 31 34
e 31 39
e 31 42
e 31 44
e 31 47
e 31 49
e 31 50
e 31 51
e 31 52
e 31 53
e 31 54
e 31 55
e 31 60
e 31 64
e 31 67
e 31 71
e 31 75
e 31 76
e 31 77
e 31 78
e 31 83
e 31 92
e 31 95
e 31 102
e 31 107
e 31 115
e 31 118
e 31 122
e 31 131
e 31 133
e 31 150
e 31 155
e 31 156
e 31 178
e 31 183
e 31 184
e 31 186
e 31 187
e 31 207
e 31 208
e 31 209
e 31 213
e 31 216
e 31 217
e 31 228
e 31 232
e 32 34
e 32 36
e 32 38
e 32 39
e 32 41
e 32 43
e 32 44
e 32 48
e 32 49
e 32 58
e 32 65
e 32 66
e 32 72
e 32 77
e 32 78
e 32 83
e 32 90
e 32 93
e 32 95
e 32 105
e 32 115
e 32 127
e 32 129
e 32 134
e 32 146
e 32 148
e 32 150
e 32 151
e 32 154
e 32 157
e 32 160
e 32 161
e 32 172
e 32 173
e 32 183
e 32 186
e 32 197
e 32 219
e 32 224
e 32 225
e 32 238
e 32 246
e 33 38
e 33 39
e 33 42
e 33 45
e 33 48
e 33 53
e 33 59
e 33 66
e 33 69
e 33 72
e 33 73
e 33 100
e 33 119
e 33 121
e 33 122
e 33 124
e 33 129
e 33 133
e 33 135
e 33 138
e 33 148
e 33 151
e 33 159
e 33 165
e 33 181
e 33 189
e 33 192
e 33 199
e 33 203
e 33 216
e 33 222
e 33 226
e 33 245
e 34 37
e 34 41
e 34 42
e 34 45
e 34 46
e 34 47
e 34 48
e 34 50
e 34 52
e 34 55
e 34 59
e 34 60
e 34 62
e 34 70
e 34 71
e 34 72
e 34 73
e 34 74
e 34 75
e 34 85
e 34 87
e 34 89
e 34 91
e 34 92
e 34 93
e 34 94
e 34 103
e 34 112
e 34 113
e 34 117
e 34 118
e 34 120
e 34 121
e 34 123
e 34 132
e 34 135
e 34 137
e 34 138
e 34 145
e 34 154
e 34 155
e 34 158
e 34 163
e 34 165
e 34 169
e 34 180
e 34 187
e 34 190
e 34 203
e 34 209
e 34 214
e 34 223
e 34 228
e 34 238
e 34 241
e 34 245
e 35 36
e 35 37
e 35 38
e 35 40
e 35 45
e 35 54
e 35 59
e 35 70
e 35 74
e 35 93
e 35 102
e 35 104
e 35 107
e 35 110
e 35 121
e 35 122
e 35 124
e 35 127
e 35 128
e 35 131
e 35 135
e 35 150
e 35 156
e 35 179
e 35 200
e 35 205
e 35 209
e 35 212
e 35 217
e 35 223
e 35 226
e 35 233
e 35 234
e 35 236
e 35 244
e 36 37
e 36 40
e 36 41
e 36 44
e 36 46
e 36 48
e 36 49
e 36 51
e 36 52
e 36 53
e 36 56
e 36 57
e 36 59
e 36 60
e 36 63
e 36 64
e 36 66
e 36 67
e 36 68
e 36 75
e 36 80
e 36 85
e 36 88
e 36 90
e 36 94
e 36 98
e 36 100
e 36 101
e 36 103
e 36 104
e 36 113
e 36 115
e 36 141
e 36 152
e 36 154
e 36 166
e 36 169
e 36 178
e 36 188
e 36 191
e 36 193
e 36 200
e 36 201
e 36 206
e 36 207
e 36 208
e 36 209
e 36 210
e 36 215
e 36 220
e 36 234
e 36 247
e 37 43
e 37 47
e 37 52
e 37 57
e 37 58
e 37 59
e 37 60
e 37 62
e 37 67
e 37 68
e 37 72
e 37 81
e 37 89
e 37 93
e 37 99
e 37 101
e 37 106
e 37 107
e 37 114
e 37 117
e 37 131
e 37 142
e 37 144
e 37 146
e 37 154
e 37 156
e 37 159
e 37 174
e 37 178
e 37 179
e 37 187
e 37 196
e 37 198
e 37 206
e 37 212
e 37 242
e 38 39
e 38 40
e 38 42
e 38 44
e 38 48
e 38 51
e 38 58
e 38 64
e 38 66
e 38 72
e 38 80
e 38 81
e 38 82
e 38 84
e 38 85
e 38 92
e 38 97
e 38 100
e 38 102
e 38 103
e 38 107
e 38 124
e 38 128
e 38 129
e 38 140
e 38 142
e 38 143
e 38 147
e 38 149
e 38 153
e 38 171
e 38 174
e 38 176
e 38 177
e 38 183
e 38 189
e 38 201
e 38 204
e 38 205
e 38 218
e 38 247
e 39 41
e 39 43
e 39 47
e 39 53
e 39 59
e 39 60
e 39 61
e 39 63
e 39 64
e 39 65
e 39 66
e 39 68
e 39 70
e 39 71
e 39 75
e 39 76
e 39 79
e 39 80
e 39 81
e 39 88
e 39 94
e 39 95
e 39 96
e 39 125
e 39 130
e 39 131
e 39 142
e 39 152
e 39 158
e 39 166
e 39 167
e 39 171
e 39 181
e 39 201
e 39 227
e 39 235
e 39 236
e 39 240
e 40 45
e 40 46
e 40 49
e 40 50
e 40 53
e 40 54
e 40 61
e 40 64
e 40 69
e 40 70
e 40 71
e 40 75
e 40 79
e 40 91
e 40 97
e 40 111
e 40 114
e 40 116
e 40 117
e 40 121
e 40 129
e 40 130
e 40 132
e 40 138
e 40 153
e 40 171
e 40 175
e 40 180
e 40 201
e 40 209
e 40 224
e 40 239
e 40 242
e 40 244
e 40 245
e 41 44
e 41 45
e 41 55
e 41 56
e 41 59
e 41 62
e 41 64
e 41 67
e 41 74
e 41 79
e 41 87
e 41 89
e 41 90
e 41 96
e 41 119
e 41 124
e 41 128
e 41 129
e 41 135
e 41 136
e 41 145
e 41 161
e 41 173
e 41 178
e 41 188
e 41 202
e 41 206
e 41 210
e 41 215
e 41 221
e 41 222
e 41 227
e 41 241
e 42 43
e 42 47
e 42 48
e 42 49
e 42 50
e 42 51
e 42 55
e 42 57
e 42 60
e 42 61
e 42 66
e 42 84
e 42 91
e 42 96
e 42 102
e 42 112
e 42 122
e 42 125
e 42 129
e 42 130
e 42 164
e 42 172
e 42 174
e 42 175
e 42 178
e 42 186
e 42 193
e 42 196
e 42 202
e 43 48
e 43 49
e 43 52
e 43 53
e 43 57
e 43 58
e 43 62
e 43 68
e 43 71
e 43 76
e 43 82
e 43 86
e 43 87
e 43 92
e 43 97
e 43 99
e 43 100
e 43 106
e 43 113
e 43 119
e 43 121
e 43 129
e 43 131
e 43 139
e 43 148
e 43 151
e 43 164
e 43 166
e 43 176
e 43 179
e 43 185
e 43 188
e 43 205
e 43 210
e 43 211
e 43 224
e 43 228
e 43 242
e 44 45
e 44 49
e 44 50
e 44 53
e 44 54
e 44 61
e 44 78
e 44 86
e 44 93
e 44 98
e 44 105
e 44 120
e 44 138
e 44 162
e 44 164
e 44 165
e 44 170
e 44 217
e 44 226
e 44 246
e 45 46
e 45 51
e 45 52
e 45 53
e 45 55
e 45 57
e 45 58
e 45 65
e 45 66
e 45 68
e 45 71
e 45 73
e 45 78
e 45 79
e 45 80
e 45 81
e 45 90
e 45 117
e 45 125
e 45 133
e 45 143
e 45 145
e 45 151
e 45 152
e 45 154
e 45 155
e 45 158
e 45 159
e 45 161
e 45 176
e 45 183
e 45 184
e 45 207
e 45 216
e 45 219
e 45 220
e 45 228
e 45 232
e 45 238
e 46 47
e 46 48
e 46 62
e 46 63
e 46 70
e 46 75
e 46 81
e 46 85
e 46 90
e 46 98
e 46 106
e 46 113
e 46 114
e 46 116
e 46 117
e 46 121
e 46 124
e 46 161
e 46 173
e 46 185
e 46 200
e 46 207
e 46 209
e 46 213
e 46 232
e 46 245
e 46 247
e 47 51
e 47 59
e 47 60
e 47 62
e 47 64
e 47 69
e 47 78
e 47 80
e 47 88
e 47 95
e 47 101
e 47 109
e 47 110
e 47 111
e 47 113
e 47 120
e 47 125
e 47 126
e 47 132
e 47 134
e 47 144
e 47 146
e 47 162
e 47 163
e 47 164
e 47 168
e 47 170
e 47 177
e 47 181
e 47 195
e 47 201
e 47 212
e 47 214
e 47 222
e 47 223
e 47 224
e 47 246
e 48 50
e 48 53
e 48 56
e 48 60
e 48 62
e 48 63
e 48 69
e 48 79
e 48 84
e 48 87
e 48 94
e 48 97
e 48 114
e 48 142
e 48 156
e 48 166
e 48 167
e 48 182
e 48 188
e 48 194
e 48 198
e 48 199
e 48 204
e 48 205
e 48 216
e 48 229
e 48 237
e 49 53
e 49 54
e 49 65
e 49 72
e 49 73
e 49 80
e 49 86
e 49 89
e 49 92
e 49 100
e 49 107
e 49 109
e 49 110
e 49 113
e 49 124
e 49 141
e 49 145
e 49 157
e 49 167
e 49 178
e 49 185
e 49 188
e 49 195
e 49 199
e 49 222
e 49 233
e 50 57
e 50 59
e 50 67
e 50 74
e 50 75
e 50 82
e 50 87
e 50 91
e 50 95
e 50 99
e 50 103
e 50 108
e 50 119
e 50 136
e 50 160
e 50 162
e 50 165
e 50 182
e 50 201
e 50 207
e 50 221
e 50 231
e 50 247
e 51 54
e 51 56
e 51 57
e 51 59
e 51 64
e 51 65
e 51 73
e 51 79
e 51 82
e 51 83
e 51 86
e 51 87
e 51 88
e 51 94
e 51 97
e 51 99
e 51 101
e 51 127
e 51 132
e 51 133
e 51 135
e 51 140
e 51 146
e 51 147
e 51 157
e 51 158
e 51 167
e 51 169
e 51 183
e 51 185
e 51 187
e 51 190
e 51 195
e 51 196
e 51 197
e 51 203
e 51 218
e 51 232
e 51 234
e 51 242
e 52 53
e 52 54
e 52 55
e 52 67
e 52 71
e 52 72
e 52 74
e 52 75
e 52 76
e 52 80
e 52 83
e 52 84
e 52 87
e 52 89
e 52 98
e 52 100
e 52 103
e 52 104
e 52 105
e 52 106
e 52 118
e 52 119
e 52 125
e 52 126
e 52 139
e 52 140
e 52 143
e 52 152
e 52 170
e 52 175
e 52 178
e 52 186
e 52 193
e 52 194
e 52 197
e 52 200
e 52 203
e 52 215
e 52 220
e 52 221
e 52 225
e 52 234
e 53 67
e 53 73
e 53 75
e 53 78
e 53 79
e 53 108
e 53 130
e 53 140
e 53 147
e 53 154
e 53 158
e 53 167
e 53 176
e 53 206
e 53 226
e 53 243
e 54 55
e 54 56
e 54 58
e 54 72
e 54 75
e 54 88
e 54 109
e 54 126
e 54 137
e 54 148
e 54 168
e 54 184
e 54 187
e 54 192
e 54 208
e 54 241
e 55 65
e 55 66
e 55 68
e 55 73
e 55 76
e 55 78
e 55 79
e 55 81
e 55 84
e 55 90
e 55 91
e 55 92
e 55 104
e 55 105
e 55 109
e 55 113
e 55 129
e 55 132
e 55 133
e 55 135
e 55 139
e 55 144
e 55 152
e 55 178
e 55 180
e 55 195
e 55 216
e 55 223
e 55 224
e 55 226
e 55 229
e 56 66
e 56 70
e 56 71
e 56 76
e 56 78
e 56 85
e 56 88
e 56 97
e 56 99
e 56 106
e 56 115
e 56 117
e 56 141
e 56 142
e 56 167
e 56 168
e 56 170
e 56 182
e 56 197
e 56 198
e 56 207
e 56 211
e 56 214
e 56 224
e 57 69
e 57 82
e 57 86
e 57 102
e 57 103
e 57 104
e 57 114
e 57 126
e 57 127
e 57 133
e 57 146
e 57 157
e 57 161
e 57 163
e 57 173
e 57 181
e 57 183
e 57 198
e 57 212
e 57 222
e 57 226
e 57 233
e 58 67
e 58 72
e 58 77
e 58 78
e 58 83
e 58 90
e 58 95
e 58 100
e 58 125
e 58 127
e 58 128
e 58 131
e 58 137
e 58 145
e 58 150
e 58 163
e 58 165
e 58 196
e 58 199
e 58 203
e 58 226
e 58 235
e 58 241
e 58 242
e 59 60
e 59 65
e 59 86
e 59 88
e 59 96
e 59 102
e 59 104
e 59 112
e 59 120
e 59 127
e 59 130
e 59 137
e 59 164
e 59 183
e 59 208
e 59 228
e 59 234
e 59 240
e 60 63
e 60 67
e 60 81
e 60 91
e 60 108
e 60 115
e 60 122
e 60 141
e 60 150
e 60 175
e 60 185
e 60 188
e 60 197
e 60 199
e 60 222
e 60 231
e 60 235
e 60 238
e 60 244
e 61 64
e 61 76
e 61 84
e 61 91
e 61 109
e 61 113
e 61 122
e 61 128
e 61 131
e 61 135
e 61 136
e 61 138
e 61 151
e 61 168
e 61 170
e 61 185
e 61 189
e 61 196
e 61 217
e 61 232
e 62 70
e 62 86
e 62 111
e 62 118
e 62 124
e 62 137
e 62 140
e 62 146
e 62 147
e 62 156
e 62 166
e 62 197
e 62 198
e 62 219
e 62 235
e 62 236
e 63 65
e 63 67
e 63 69
e 63 80
e 63 81
e 63 82
e 63 89
e 63 95
e 63 103
e 63 117
e 63 131
e 63 138
e 63 143
e 63 155
e 63 156
e 63 157
e 63 166
e 63 169
e 63 187
e 63 193
e 63 196
e 63 203
e 63 205
e 63 222
e 63 239
e 63 247
e 64 68
e 64 81
e 64 87
e 64 92
e 64 101
e 64 107
e 64 116
e 64 122
e 64 129
e 64 138
e 64 146
e 64 171
e 64 188
e 64 194
e 64 231
e 65 70
e 65 72
e 65 94
e 65 98
e 65 110
e 65 122
e 65 130
e 65 192
e 65 210
e 65 216
e 65 227
e 65 230
e 65 246
e 66 70
e 66 71
e 66 76
e 66 77
e 66 87
e 66 88
e 66 94
e 66 100
e 66 102
e 66 105
e 66 106
e 66 110
e 66 125
e 66 127
e 66 128
e 66 134
e 66 139
e 66 141
e 66 149
e 66 153
e 66 173
e 66 200
e 66 216
e 66 233
e 66 238
e 66 246
e 66 247
e 67 69
e 67 70
e 67 75
e 67 84
e 67 85
e 67 97
e 67 99
e 67 109
e 67 112
e 67 113
e 67 116
e 67 123
e 67 150
e 67 157
e 67 160
e 67 171
e 67 195
e 67 198
e 67 213
e 67 230
e 67 232
e 67 242
e 68 77
e 68 96
e 68 102
e 68 137
e 68 155
e 68 175
e 68 177
e 68 185
e 68 237
e 68 239
e 69 71
e 69 75
e 69 76
e 69 78
e 69 90
e 69 96
e 69 99
e 69 114
e 69 116
e 69 131
e 69 138
e 69 143
e 69 151
e 69 161
e 69 162
e 69 175
e 69 179
e 69 183
e 69 189
e 69 191
e 69 193
e 69 204
e 69 205
e 69 222
e 69 224
e 69 231
e 69 241
e 69 242
e 70 77
e 70 78
e 70 81
e 70 86
e 70 93
e 70 96
e 70 100
e 70 102
e 70 104
e 70 108
e 70 114
e 70 118
e 70 120
e 70 195
e 70 207
e 70 210
e 70 244
e 71 73
e 71 74
e 71 87
e 71 88
e 71 90
e 71 101
e 71 105
e 71 106
e 71 107
e 71 116
e 71 126
e 71 157
e 71 165
e 71 171
e 71 203
e 71 210
e 71 217
e 71 246
e 72 85
e 72 86
e 72 89
e 72 95
e 72 109
e 72 119
e 72 141
e 72 142
e 72 163
e 72 165
e 72 171
e 72 197
e 72 206
e 72 239
e 73 77
e 73 104
e 73 139
e 73 155
e 73 176
e 73 201
e 73 223
e 73 240
e 74 75
e 74 77
e 74 80
e 74 83
e 74 92
e 74 111
e 74 118
e 74 138
e 74 139
e 74 147
e 74 184
e 74 193
e 74 206
e 74 207
e 74 214
e 74 227
e 74 241
e 75 83
e 75 84
e 75 94
e 75 98
e 75 99
e 75 103
e 75 110
e 75 111
e 75 112
e 75 124
e 75 182
e 75 200
e 75 208
e 75 226
e 75 234
e 75 237
e 75 245
e 76 91
e 76 92
e 76 94
e 76 99
e 76 103
e 76 117
e 76 120
e 76 123
e 76 125
e 76 131
e 76 133
e 76 157
e 76 170
e 76 177
e 76 185
e 76 200
e 76 241
e 77 101
e 77 123
e 77 142
e 77 162
e 77 163
e 77 168
e 77 200
e 77 206
e 77 213
e 77 219
e 77 221
e 77 226
e 77 244
e 78 91
e 78 98
e 78 105
e 78 110
e 78 112
e 78 118
e 78 147
e 78 155
e 78 156
e 78 158
e 78 173
e 78 179
e 78 210
e 78 211
e 78 223
e 78 229
e 78 245
e 79 132
e 79 136
e 79 143
e 79 144
e 79 148
e 79 149
e 79 179
e 79 191
e 79 199
e 79 222
e 79 234
e 79 239
e 80 82
e 80 86
e 80 90
e 80 101
e 80 108
e 80 110
e 80 124
e 80 132
e 80 140
e 80 152
e 80 161
e 80 169
e 80 191
e 80 218
e 81 88
e 81 89
e 81 93
e 81 119
e 81 150
e 81 199
e 81 203
e 81 213
e 81 228
e 81 241
e 82 111
e 82 116
e 82 139
e 82 149
e 82 153
e 82 159
e 82 171
e 82 180
e 82 218
e 82 238
e 82 246
e 83 85
e 83 89
e 83 115
e 83 120
e 83 142
e 83 182
e 83 200
e 83 205
e 83 240
e 84 96
e 84 97
e 84 101
e 84 105
e 84 106
e 84 109
e 84 113
e 84 115
e 84 128
e 84 153
e 84 155
e 84 161
e 84 168
e 84 200
e 85 113
e 85 117
e 85 120
e 85 122
e 85 128
e 85 132
e 85 137
e 85 138
e 85 144
e 85 154
e 85 159
e 85 160
e 85 190
e 85 225
e 85 237
e 85 240
e 85 242
e 86 111
e 86 125
e 86 139
e 86 143
e 86 157
e 86 163
e 86 174
e 86 177
e 86 191
e 86 193
e 86 215
e 86 223
e 86 238
e 87 88
e 87 93
e 87 96
e 87 98
e 87 104
e 87 108
e 87 125
e 87 136
e 87 157
e 87 202
e 87 213
e 87 236
e 88 104
e 88 110
e 88 120
e 88 121
e 88 145
e 88 150
e 88 171
e 88 184
e 88 190
e 88 201
e 88 215
e 88 216
e 88 218
e 89 91
e 89 114
e 89 136
e 89 146
e 89 148
e 89 149
e 89 152
e 89 155
e 89 167
e 89 187
e 89 189
e 89 200
e 89 218
e 89 231
e 90 94
e 90 96
e 90 100
e 90 134
e 90 136
e 90 148
e 90 151
e 90 156
e 90 207
e 91 97
e 91 98
e 91 100
e 91 107
e 91 108
e 91 111
e 91 116
e 91 120
e 91 121
e 91 125
e 91 155
e 91 159
e 91 189
e 91 238
e 92 138
e 92 153
e 92 191
e 92 192
e 93 103
e 93 112
e 93 118
e 93 119
e 93 133
e 93 160
e 93 187
e 93 235
e 93 241
e 94 101
e 94 102
e 94 111
e 94 140
e 94 152
e 94 156
e 94 158
e 94 188
e 94 215
e 94 231
e 94 247
e 95 114
e 95 117
e 95 130
e 95 143
e 95 151
e 95 155
e 95 174
e 95 215
e 96 99
e 96 104
e 96 107
e 96 112
e 96 116
e 96 135
e 96 169
e 96 179
e 96 197
e 96 203
e 96 205
e 96 214
e 96 218
e 96 229
e 96 234
e 97 106
e 97 107
e 97 136
e 97 139
e 97 149
e 97 211
e 97 220
e 97 237
e 98 138
e 98 148
e 98 151
e 98 159
e 98 163
e 98 164
e 98 177
e 98 213
e 98 214
e 98 217
e 98 225
e 98 226
e 98 231
e 98 234
e 98 246
e 99 100
e 99 102
e 99 105
e 99 107
e 99 137
e 99 143
e 99 145
e 99 170
e 99 172
e 99 175
e 99 179
e 99 180
e 99 181
e 99 188
e 99 191
e 99 192
e 99 195
e 99 215
e 99 237
e 99 241
e 99 242
e 99 244
e 100 121
e 100 132
e 100 133
e 100 151
e 100 164
e 100 180
e 100 194
e 100 197
e 100 210
e 100 233
e 100 243
e 101 118
e 101 126
e 101 136
e 101 137
e 101 144
e 101 154
e 101 160
e 101 168
e 101 173
e 101 191
e 101 194
e 101 214
e 101 218
e 101 222
e 101 227
e 101 242
e 102 112
e 102 129
e 102 140
e 102 153
e 102 160
e 102 162
e 102 185
e 102 186
e 102 204
e 102 206
e 102 221
e 102 225
e 102 232
e 102 235
e 103 105
e 103 126
e 103 134
e 103 139
e 103 216
e 104 112
e 104 115
e 104 140
e 104 145
e 104 159
e 104 207
e 104 222
e 104 225
e 104 230
e 104 243
e 105 109
e 105 112
e 105 115
e 105 126
e 105 127
e 105 134
e 105 187
e 105 190
e 105 220
e 105 238
e 105 247
e 106 108
e 106 141
e 106 162
e 106 180
e 106 183
e 106 199
e 106 201
e 106 207
e 106 231
e 107 124
e 107 134
e 107 146
e 107 170
e 107 198
e 107 245
e 108 122
e 108 126
e 108 165
e 108 177
e 108 180
e 108 208
e 109 111
e 109 120
e 109 123
e 109 139
e 109 144
e 109 150
e 109 153
e 109 160
e 109 161
e 109 172
e 109 181
e 109 210
e 109 224
e 109 231
e 109 232
e 110 114
e 110 122
e 110 132
e 110 141
e 110 153
e 110 154
e 110 160
e 110 187
e 110 192
e 110 202
e 110 209
e 110 217
e 111 123
e 111 146
e 111 149
e 111 164
e 111 188
e 111 191
e 111 202
e 111 218
e 111 229
e 112 115
e 112 126
e 112 133
e 112 134
e 112 136
e 112 157
e 112 167
e 112 169
e 112 198
e 112 211
e 112 212
e 112 213
e 112 228
e 113 121
e 113 124
e 113 141
e 113 152
e 113 174
e 113 176
e 114 135
e 114 136
e 114 179
e 114 204
e 114 209
e 114 235
e 115 116
e 115 123
e 115 135
e 115 156
e 115 159
e 115 170
e 115 175
e 115 185
e 115 186
e 115 187
e 115 230
e 116 122
e 116 133
e 116 142
e 116 166
e 116 172
e 116 173
e 116 178
e 116 195
e 116 198
e 116 199
e 116 223
e 116 233
e 116 247
e 117 121
e 117 142
e 117 177
e 117 184
e 118 167
e 118 191
e 118 200
e 119 135
e 119 153
e 119 163
e 119 170
e 119 175
e 119 185
e 119 186
e 119 192
e 119 196
e 119 201
e 119 204
e 119 206
e 119 225
e 120 127
e 120 143
e 120 167
e 120 176
e 120 181
e 120 204
e 120 240
e 120 246
e 121 137
e 121 145
e 121 146
e 121 154
e 121 163
e 121 197
e 121 203
e 121 213
e 121 233
e 121 245
e 122 128
e 122 140
e 122 144
e 122 172
e 122 179
e 122 190
e 122 202
e 122 205
e 122 219
e 122 223
e 122 245
e 122 247
e 123 127
e 123 129
e 123 132
e 123 148
e 123 150
e 123 186
e 124 131
e 124 141
e 124 147
e 124 232
e 124 236
e 125 133
e 125 145
e 125 153
e 125 166
e 125 178
e 125 181
e 125 213
e 125 230
e 125 235
e 125 239
e 126 128
e 126 137
e 126 140
e 126 195
e 126 198
e 126 208
e 126 211
e 126 212
e 126 220
e 126 230
e 126 233
e 126 234
e 127 128
e 127 144
e 127 194
e 127 225
e 127 232
e 128 133
e 128 168
e 128 177
e 128 179
e 128 182
e 128 186
e 128 204
e 128 208
e 128 229
e 128 243
e 129 153
e 129 175
e 129 184
e 129 211
e 129 225
e 129 247
e 130 155
e 130 190
e 130 192
e 130 198
e 130 211
e 131 134
e 131 135
e 131 142
e 131 176
e 131 203
e 131 218
e 131 223
e 131 239
e 132 186
e 132 208
e 132 215
e 132 228
e 133 139
e 133 141
e 133 184
e 133 205
e 133 213
e 133 218
e 133 235
e 133 246
e 134 169
e 134 180
e 134 182
e 134 198
e 134 233
e 135 143
e 135 176
e 135 180
e 135 182
e 135 200
e 135 216
e 135 232
e 135 246
e 136 143
e 136 163
e 136 165
e 136 196
e 136 235
e 137 152
e 137 158
e 137 161
e 137 183
e 137 219
e 137 237
e 138 148
e 138 164
e 138 203
e 138 205
e 139 140
e 139 143
e 139 162
e 139 165
e 139 212
e 139 216
e 139 218
e 139 233
e 140 161
e 140 166
e 140 173
e 140 174
e 140 214
e 140 238
e 140 240
e 141 154
e 141 177
e 141 182
e 141 195
e 141 230
e 141 236
e 142 149
e 142 183
e 142 215
e 142 219
e 143 158
e 143 164
e 143 183
e 143 188
e 143 196
e 143 204
e 143 217
e 143 227
e 143 229
e 143 240
e 144 145
e 144 166
e 144 169
e 144 183
e 144 189
e 144 214
e 144 225
e 144 233
e 145 167
e 145 184
e 145 226
e 145 239
e 146 155
e 146 158
e 146 161
e 146 175
e 146 204
e 146 244
e 147 158
e 147 165
e 147 169
e 147 172
e 147 196
e 147 202
e 147 226
e 148 160
e 148 168
e 148 205
e 149 182
e 149 194
e 149 217
e 149 220
e 150 156
e 150 168
e 150 188
e 150 214
e 150 219
e 150 222
e 151 212
e 152 219
e 152 229
e 152 239
e 152 243
e 153 191
e 153 199
e 154 164
e 154 167
e 154 172
e 154 226
e 154 228
e 154 234
e 155 156
e 155 230
e 155 244
e 155 245
e 156 166
e 156 202
e 156 224
e 156 226
e 156 237
e 156 238
e 157 162
e 157 185
e 157 207
e 157 237
e 157 247
e 158 192
e 158 198
e 158 217
e 158 229
e 158 247
e 159 162
e 159 166
e 159 181
e 159 191
e 159 194
e 159 215
e 160 172
e 160 177
e 160 221
e 160 244
e 161 172
e 161 213
e 161 214
e 161 217
e 162 163
e 162 170
e 162 171
e 162 172
e 162 174
e 162 184
e 162 206
e 162 238
e 162 240
e 162 244
e 163 173
e 163 182
e 163 186
e 163 208
e 163 243
e 164 170
e 164 174
e 164 199
e 164 227
e 165 171
e 165 190
e 165 209
e 165 231
e 165 245
e 166 174
e 166 231
e 167 213
e 167 225
e 167 237
e 168 212
e 170 189
e 170 191
e 170 231
e 171 176
e 171 190
e 171 210
e 171 221
e 172 220
e 172 221
e 172 236
e 172 245
e 173 175
e 173 177
e 173 179
e 173 189
e 173 193
e 173 205
e 173 231
e 173 235
e 174 196
e 174 215
e 174 222
e 174 225
e 175 194
e 175 201
e 175 203
e 175 206
e 176 178
e 177 202
e 177 210
e 177 233
e 178 202
e 178 219
e 179 217
e 179 239
e 179 244
e 180 205
e 181 206
e 181 211
e 181 220
e 181 221
e 181 230
e 181 243
e 182 193
e 182 219
e 183 206
e 183 229
e 183 230
e 183 236
e 184 185
e 184 232
e 186 211
e 186 222
e 186 235
e 186 239
e 186 246
e 187 189
e 187 203
e 188 227
e 188 229
e 189 190
e 189 212
e 189 228
e 189 236
e 189 238
e 189 241
e 190 211
e 190 218
e 190 223
e 190 244
e 191 193
e 191 202
e 191 224
e 193 202
e 193 208
e 195 199
e 196 197
e 196 201
e 196 225
e 197 199
e 197 220
e 197 232
e 198 227
e 198 229
e 198 238
e 199 207
e 199 234
e 199 236
e 199 238
e 200 227
e 200 228
e 200 229
e 201 227
e 201 230
e 203 219
e 204 243
e 205 215
e 205 228
e 207 208
e 207 217
e 207 234
e 207 240
e 208 221
e 210 216
e 210 240
e 211 241
e 212 237
e 213 214
e 213 233
e 214 246
e 216 219
e 217 219
e 217 223
e 217 240
e 219 239
e 220 230
e 221 224
e 221 225
e 221 235
e 221 243
e 222 224
e 223 243
e 229 242
e 230 246
e 236 243
e 238 243
e 241 244
